<number of tasks>
89

<cycle time>
110

<task times>
1 28
2 17
3 7
4 10
5 12
6 16
7 13
8 8
9 13
10 24
11 16
12 24
13 12
14 20
15 22
16 22
17 22
18 47
19 6
20 12
21 6
22 22
23 7
24 14
25 68
26 15
27 8
28 74
29 32
30 11
31 18
32 15
33 42
34 27
35 38
36 38
37 26
38 35
39 31
40 8
41 14
42 8
43 8
44 8
45 17
46 7
47 19
48 12
49 24
50 26
51 22
52 14
53 27
54 60
55 4
56 2
57 1
58 9
59 5
60 6
61 7
62 12
63 2
64 11
65 14
66 6
67 21
68 14
69 1
70 6
71 21
72 11
73 14
74 28
75 12
76 11
77 30
78 22
79 14
80 31
81 18
82 16
83 7
84 38
85 8
86 31
87 29
88 12
89 18

<precedence relations>
1,2
2,3
3,4
4,5
4,6
4,7
4,8
4,9
5,10
6,11
7,12
8,18
9,18
10,14
11,12
12,13
13,14
14,15
14,16
15,17
16,54
17,18
18,19
18,20
19,22
20,21
20,28
21,54
22,23
23,24
24,25
25,26
25,27
25,29
26,37
27,33
28,29
29,31
30,54
31,32
32,33
33,34
34,35
35,36
35,37
36,38
37,38
38,39
39,40
39,41
39,42
39,43
40,44
41,53
42,53
43,45
44,52
45,46
46,47
47,48
47,49
49,50
50,51
51,52
52,53
53,68
53,69
53,70
53,71
54,55
55,56
56,57
57,58
57,59
57,60
57,61
57,62
57,63
57,64
57,65
57,66
58,67
59,67
60,67
61,67
62,67
63,67
64,67
65,67
66,67
67,73
68,72
69,72
70,72
71,73
72,78
72,80
73,74
74,75
74,76
75,77
76,81
77,78
78,79
79,81
80,81
81,82
81,84
81,85
82,83
83,86
84,86
85,86
86,87
87,88
87,89

<setup times forward>
4,5:3
4,9:2
5,6:3
5,7:3
5,8:3
5,9:5
5,30:3
6,5:3
6,9:2
6,10:3
6,11:3
7,5:3
7,9:2
7,10:3
7,11:3
7,12:3
8,5:3
8,9:2
8,10:3
8,11:3
8,12:3
8,13:3
8,14:3
8,15:2
8,16:2
8,17:2
8,18:2
9,5:5
9,6:2
9,7:2
9,8:2
9,10:5
9,11:5
9,12:5
9,13:5
9,14:5
9,30:2
10,6:3
10,7:3
10,8:3
10,9:5
10,30:3
11,7:3
11,8:3
11,9:5
11,30:3
12,8:3
12,9:5
12,30:3
13,8:3
13,9:5
13,30:3
14,8:3
14,9:5
14,15:5
14,16:5
14,30:3
15,8:2
15,30:2
16,8:2
16,20:3
16,21:3
16,22:3
16,23:3
16,24:3
16,25:3
16,26:3
16,28:3
16,29:2
16,30:2
16,31:2
16,32:2
16,33:2
16,34:1
16,35:1
16,36:4
16,37:1
16,38:4
16,39:4
16,40:2
16,42:1
16,44:2
16,48:3
16,50:2
16,51:2
16,52:2
16,53:1
16,68:3
16,69:3
16,70:3
16,71:1
16,72:3
16,80:4
17,8:2
17,30:2
18,20:3
18,30:2
19,20:3
19,21:3
19,22:3
19,28:3
19,30:2
19,59:1
19,60:4
19,63:2
19,64:2
19,65:1
19,67:2
20,16:3
20,19:3
20,27:3
20,30:1
21,16:3
21,19:3
21,27:3
21,29:1
21,30:1
21,31:1
21,32:1
21,33:1
21,34:4
21,35:4
21,36:1
21,37:4
21,38:1
21,39:1
21,40:5
21,41:3
21,42:2
21,43:3
21,44:5
21,45:3
21,46:3
21,47:3
21,48:6
21,49:3
21,50:5
21,51:5
21,52:5
21,53:2
21,54:3
21,71:2
21,80:1
22,16:3
22,30:1
22,54:3
22,55:3
22,56:3
22,57:3
22,58:3
22,59:4
22,60:1
22,61:3
22,62:3
22,63:1
22,64:5
22,65:4
22,66:3
22,67:5
23,16:3
23,30:1
23,54:3
23,55:3
23,56:3
23,57:3
23,58:3
23,59:4
23,60:1
23,61:3
23,62:3
23,63:1
23,64:5
23,65:4
23,66:3
23,67:5
24,16:3
24,30:1
24,54:3
24,55:3
24,56:3
24,57:3
24,58:3
24,59:4
24,60:1
24,61:3
24,62:3
24,63:1
24,64:5
24,65:4
24,66:3
24,67:5
25,16:3
25,27:3
25,29:1
25,30:1
25,54:3
25,55:3
25,56:3
25,57:3
25,58:3
25,59:4
25,60:1
25,61:3
25,62:3
25,63:1
25,64:5
25,65:4
25,66:3
25,67:5
26,16:3
26,27:3
26,29:1
26,30:1
26,31:1
26,32:1
26,33:1
26,34:4
26,35:4
26,36:1
26,37:4
26,54:3
26,55:3
26,56:3
26,57:3
26,58:3
26,59:4
26,60:1
26,61:3
26,62:3
26,63:1
26,64:5
26,65:4
26,66:3
26,67:5
27,20:3
27,21:3
27,26:3
27,28:3
27,29:2
27,30:2
27,31:2
27,32:2
27,33:2
27,59:1
27,60:4
27,63:2
27,64:2
27,65:1
27,67:2
28,16:3
28,19:3
28,27:3
28,29:1
28,30:1
28,54:3
28,55:3
28,56:3
28,57:3
28,58:3
28,59:4
28,60:1
28,61:3
28,62:3
28,63:1
28,64:5
28,65:4
28,66:3
28,67:5
29,16:2
29,21:1
29,26:1
29,27:2
29,54:2
29,55:2
29,56:2
29,57:2
29,58:2
29,59:3
29,60:2
29,61:2
29,62:2
29,64:4
29,65:3
29,66:2
29,67:4
30,5:3
30,9:2
30,10:3
30,11:3
30,12:3
30,13:3
30,14:3
30,15:2
30,16:2
30,17:2
30,18:2
30,19:2
30,20:1
30,21:1
30,22:1
30,23:1
30,24:1
30,25:1
30,26:1
30,27:2
30,28:1
30,34:3
30,35:3
30,36:2
30,37:3
30,38:2
30,39:2
30,40:4
30,41:2
30,42:1
30,43:2
30,44:4
30,45:2
30,46:2
30,47:2
30,48:5
30,49:2
30,50:4
30,51:4
30,52:4
30,53:1
30,54:2
30,68:1
30,69:1
30,70:1
30,71:1
30,72:1
30,80:2
31,16:2
31,21:1
31,26:1
31,27:2
31,54:2
31,55:2
31,56:2
31,57:2
31,58:2
31,59:3
31,60:2
31,61:2
31,62:2
31,64:4
31,65:3
31,66:2
31,67:4
32,16:2
32,21:1
32,26:1
32,27:2
32,54:2
32,55:2
32,56:2
32,57:2
32,58:2
32,59:3
32,60:2
32,61:2
32,62:2
32,64:4
32,65:3
32,66:2
32,67:4
33,16:2
33,21:1
33,26:1
33,34:3
33,54:2
33,55:2
33,56:2
33,57:2
33,58:2
33,59:3
33,60:2
33,61:2
33,62:2
33,64:4
33,65:3
33,66:2
33,67:4
34,16:1
34,21:4
34,26:4
34,30:3
34,54:1
34,55:1
34,56:1
34,57:1
34,58:1
34,60:5
34,61:1
34,62:1
34,63:3
34,64:1
34,66:1
34,67:1
35,16:1
35,21:4
35,26:4
35,30:3
35,36:5
35,54:1
35,55:1
35,56:1
35,57:1
35,58:1
35,60:5
35,61:1
35,62:1
35,63:3
35,64:1
35,66:1
35,67:1
36,16:4
36,21:1
36,26:1
36,30:2
36,37:5
36,54:4
36,55:4
36,56:4
36,57:4
36,58:4
36,59:5
36,61:4
36,62:4
36,63:2
36,64:6
36,65:5
36,66:4
36,67:6
37,16:1
37,21:4
37,30:3
37,36:5
37,38:5
37,54:1
37,55:1
37,56:1
37,57:1
37,58:1
37,60:5
37,61:1
37,62:1
37,63:3
37,64:1
37,66:1
37,67:1
38,16:4
38,21:1
38,30:2
38,54:4
38,55:4
38,56:4
38,57:4
38,58:4
38,59:5
38,61:4
38,62:4
38,63:2
38,64:6
38,65:5
38,66:4
38,67:6
39,16:4
39,21:1
39,30:2
39,40:6
39,41:4
39,42:3
39,43:4
39,54:4
39,55:4
39,56:4
39,57:4
39,58:4
39,59:5
39,61:4
39,62:4
39,63:2
39,64:6
39,65:5
39,66:4
39,67:6
40,16:2
40,21:5
40,30:4
40,41:2
40,42:3
40,43:2
40,45:2
40,46:2
40,47:2
40,48:1
40,49:2
40,54:2
40,55:2
40,56:2
40,57:2
40,58:2
40,59:1
40,60:6
40,61:2
40,62:2
40,63:4
40,65:1
40,66:2
41,21:3
41,30:2
41,40:2
41,42:1
41,44:2
41,48:3
41,50:2
41,51:2
41,52:2
41,53:1
41,59:1
41,60:4
41,63:2
41,64:2
41,65:1
41,67:2
42,16:1
42,21:2
42,30:1
42,40:3
42,41:1
42,43:1
42,44:3
42,45:1
42,46:1
42,47:1
42,48:4
42,49:1
42,50:3
42,51:3
42,52:3
42,54:1
42,55:1
42,56:1
42,57:1
42,58:1
42,59:2
42,60:3
42,61:1
42,62:1
42,63:1
42,64:3
42,65:2
42,66:1
42,67:3
43,21:3
43,30:2
43,40:2
43,42:1
43,44:2
43,59:1
43,60:4
43,63:2
43,64:2
43,65:1
43,67:2
44,16:2
44,21:5
44,30:4
44,41:2
44,42:3
44,43:2
44,45:2
44,46:2
44,47:2
44,48:1
44,49:2
44,54:2
44,55:2
44,56:2
44,57:2
44,58:2
44,59:1
44,60:6
44,61:2
44,62:2
44,63:4
44,65:1
44,66:2
45,21:3
45,30:2
45,40:2
45,42:1
45,44:2
45,59:1
45,60:4
45,63:2
45,64:2
45,65:1
45,67:2
46,21:3
46,30:2
46,40:2
46,42:1
46,44:2
46,59:1
46,60:4
46,63:2
46,64:2
46,65:1
46,67:2
47,21:3
47,30:2
47,40:2
47,42:1
47,44:2
47,48:3
47,59:1
47,60:4
47,63:2
47,64:2
47,65:1
47,67:2
48,16:3
48,21:6
48,30:5
48,40:1
48,41:3
48,42:4
48,44:1
48,49:3
48,50:1
48,51:1
48,52:1
48,53:4
48,54:3
48,55:3
48,56:3
48,57:3
48,58:3
48,59:2
48,60:7
48,61:3
48,62:3
48,63:5
48,64:1
48,65:2
48,66:3
48,67:1
48,68:6
48,69:6
48,70:6
48,71:4
48,72:6
48,73:4
48,74:4
48,75:6
48,76:4
48,77:6
48,78:6
48,79:6
48,80:7
48,81:7
48,82:7
48,83:7
48,84:7
49,21:3
49,30:2
49,40:2
49,42:1
49,44:2
49,48:3
49,50:2
49,59:1
49,60:4
49,63:2
49,64:2
49,65:1
49,67:2
50,16:2
50,21:5
50,30:4
50,41:2
50,42:3
50,48:1
50,54:2
50,55:2
50,56:2
50,57:2
50,58:2
50,59:1
50,60:6
50,61:2
50,62:2
50,63:4
50,65:1
50,66:2
51,16:2
51,21:5
51,30:4
51,41:2
51,42:3
51,48:1
51,54:2
51,55:2
51,56:2
51,57:2
51,58:2
51,59:1
51,60:6
51,61:2
51,62:2
51,63:4
51,65:1
51,66:2
52,16:2
52,21:5
52,30:4
52,41:2
52,42:3
52,48:1
52,53:3
52,54:2
52,55:2
52,56:2
52,57:2
52,58:2
52,59:1
52,60:6
52,61:2
52,62:2
52,63:4
52,65:1
52,66:2
53,16:1
53,21:2
53,30:1
53,48:4
53,54:1
53,55:1
53,56:1
53,57:1
53,58:1
53,59:2
53,60:3
53,61:1
53,62:1
53,63:1
53,64:3
53,65:2
53,66:1
53,67:3
53,68:2
53,69:2
53,70:2
54,22:3
54,23:3
54,24:3
54,25:3
54,26:3
54,28:3
54,29:2
54,31:2
54,32:2
54,33:2
54,34:1
54,35:1
54,36:4
54,37:1
54,38:4
54,39:4
54,40:2
54,42:1
54,44:2
54,48:3
54,50:2
54,51:2
54,52:2
54,53:1
54,68:3
54,69:3
54,70:3
54,71:1
54,72:3
54,80:4
55,22:3
55,23:3
55,24:3
55,25:3
55,26:3
55,28:3
55,29:2
55,31:2
55,32:2
55,33:2
55,34:1
55,35:1
55,36:4
55,37:1
55,38:4
55,39:4
55,40:2
55,42:1
55,44:2
55,48:3
55,50:2
55,51:2
55,52:2
55,53:1
55,68:3
55,69:3
55,70:3
55,71:1
55,72:3
55,80:4
56,22:3
56,23:3
56,24:3
56,25:3
56,26:3
56,28:3
56,29:2
56,31:2
56,32:2
56,33:2
56,34:1
56,35:1
56,36:4
56,37:1
56,38:4
56,39:4
56,40:2
56,42:1
56,44:2
56,48:3
56,50:2
56,51:2
56,52:2
56,53:1
56,68:3
56,69:3
56,70:3
56,71:1
56,72:3
56,80:4
57,22:3
57,23:3
57,24:3
57,25:3
57,26:3
57,28:3
57,29:2
57,31:2
57,32:2
57,33:2
57,34:1
57,35:1
57,36:4
57,37:1
57,38:4
57,39:4
57,40:2
57,42:1
57,44:2
57,48:3
57,50:2
57,51:2
57,52:2
57,53:1
57,59:1
57,60:4
57,63:2
57,64:2
57,65:1
57,68:3
57,69:3
57,70:3
57,71:1
57,72:3
57,80:4
58,22:3
58,23:3
58,24:3
58,25:3
58,26:3
58,28:3
58,29:2
58,31:2
58,32:2
58,33:2
58,34:1
58,35:1
58,36:4
58,37:1
58,38:4
58,39:4
58,40:2
58,42:1
58,44:2
58,48:3
58,50:2
58,51:2
58,52:2
58,53:1
58,59:1
58,60:4
58,63:2
58,64:2
58,65:1
58,67:2
58,68:3
58,69:3
58,70:3
58,71:1
58,72:3
58,80:4
59,19:1
59,22:4
59,23:4
59,24:4
59,25:4
59,26:4
59,27:1
59,28:4
59,29:3
59,31:3
59,32:3
59,33:3
59,36:5
59,38:5
59,39:5
59,40:1
59,41:1
59,42:2
59,43:1
59,44:1
59,45:1
59,46:1
59,47:1
59,48:2
59,49:1
59,50:1
59,51:1
59,52:1
59,53:2
59,58:1
59,60:5
59,61:1
59,62:1
59,63:3
59,64:1
59,66:1
59,67:1
59,68:4
59,69:4
59,70:4
59,71:2
59,72:4
59,80:5
60,19:4
60,22:1
60,23:1
60,24:1
60,25:1
60,26:1
60,27:4
60,28:1
60,29:2
60,31:2
60,32:2
60,33:2
60,34:5
60,35:5
60,37:5
60,40:6
60,41:4
60,42:3
60,43:4
60,44:6
60,45:4
60,46:4
60,47:4
60,48:7
60,49:4
60,50:6
60,51:6
60,52:6
60,53:3
60,58:4
60,59:5
60,61:4
60,62:4
60,63:2
60,64:6
60,65:5
60,66:4
60,67:6
60,68:1
60,69:1
60,70:1
60,71:3
60,72:1
61,22:3
61,23:3
61,24:3
61,25:3
61,26:3
61,28:3
61,29:2
61,31:2
61,32:2
61,33:2
61,34:1
61,35:1
61,36:4
61,37:1
61,38:4
61,39:4
61,40:2
61,42:1
61,44:2
61,48:3
61,50:2
61,51:2
61,52:2
61,53:1
61,59:1
61,60:4
61,63:2
61,64:2
61,65:1
61,67:2
61,68:3
61,69:3
61,70:3
61,71:1
61,72:3
61,80:4
62,22:3
62,23:3
62,24:3
62,25:3
62,26:3
62,28:3
62,29:2
62,31:2
62,32:2
62,33:2
62,34:1
62,35:1
62,36:4
62,37:1
62,38:4
62,39:4
62,40:2
62,42:1
62,44:2
62,48:3
62,50:2
62,51:2
62,52:2
62,53:1
62,59:1
62,60:4
62,63:2
62,64:2
62,65:1
62,67:2
62,68:3
62,69:3
62,70:3
62,71:1
62,72:3
62,80:4
63,19:2
63,22:1
63,23:1
63,24:1
63,25:1
63,26:1
63,27:2
63,28:1
63,34:3
63,35:3
63,36:2
63,37:3
63,38:2
63,39:2
63,40:4
63,41:2
63,42:1
63,43:2
63,44:4
63,45:2
63,46:2
63,47:2
63,48:5
63,49:2
63,50:4
63,51:4
63,52:4
63,53:1
63,58:2
63,59:3
63,60:2
63,61:2
63,62:2
63,64:4
63,65:3
63,66:2
63,67:4
63,68:1
63,69:1
63,70:1
63,71:1
63,72:1
63,80:2
64,19:2
64,22:5
64,23:5
64,24:5
64,25:5
64,26:5
64,27:2
64,28:5
64,29:4
64,31:4
64,32:4
64,33:4
64,34:1
64,35:1
64,36:6
64,37:1
64,38:6
64,39:6
64,41:2
64,42:3
64,43:2
64,45:2
64,46:2
64,47:2
64,48:1
64,49:2
64,53:3
64,58:2
64,59:1
64,60:6
64,61:2
64,62:2
64,63:4
64,65:1
64,66:2
64,68:5
64,69:5
64,70:5
64,71:3
64,72:5
64,80:6
65,19:1
65,22:4
65,23:4
65,24:4
65,25:4
65,26:4
65,27:1
65,28:4
65,29:3
65,31:3
65,32:3
65,33:3
65,36:5
65,38:5
65,39:5
65,40:1
65,41:1
65,42:2
65,43:1
65,44:1
65,45:1
65,46:1
65,47:1
65,48:2
65,49:1
65,50:1
65,51:1
65,52:1
65,53:2
65,58:1
65,60:5
65,61:1
65,62:1
65,63:3
65,64:1
65,66:1
65,67:1
65,68:4
65,69:4
65,70:4
65,71:2
65,72:4
65,80:5
66,22:3
66,23:3
66,24:3
66,25:3
66,26:3
66,28:3
66,29:2
66,31:2
66,32:2
66,33:2
66,34:1
66,35:1
66,36:4
66,37:1
66,38:4
66,39:4
66,40:2
66,42:1
66,44:2
66,48:3
66,50:2
66,51:2
66,52:2
66,53:1
66,59:1
66,60:4
66,63:2
66,64:2
66,65:1
66,67:2
66,68:3
66,69:3
66,70:3
66,71:1
66,72:3
66,80:4
67,19:2
67,22:5
67,23:5
67,24:5
67,25:5
67,26:5
67,27:2
67,28:5
67,29:4
67,31:4
67,32:4
67,33:4
67,34:1
67,35:1
67,36:6
67,37:1
67,38:6
67,39:6
67,41:2
67,42:3
67,43:2
67,45:2
67,46:2
67,47:2
67,48:1
67,49:2
67,53:3
67,68:5
67,69:5
67,70:5
67,71:3
67,72:5
67,73:3
67,80:6
68,16:3
68,30:1
68,48:6
68,54:3
68,55:3
68,56:3
68,57:3
68,58:3
68,59:4
68,60:1
68,61:3
68,62:3
68,63:1
68,64:5
68,65:4
68,66:3
68,67:5
68,71:2
68,73:2
68,74:2
68,76:2
69,16:3
69,30:1
69,48:6
69,54:3
69,55:3
69,56:3
69,57:3
69,58:3
69,59:4
69,60:1
69,61:3
69,62:3
69,63:1
69,64:5
69,65:4
69,66:3
69,67:5
69,71:2
69,73:2
69,74:2
69,76:2
70,16:3
70,30:1
70,48:6
70,54:3
70,55:3
70,56:3
70,57:3
70,58:3
70,59:4
70,60:1
70,61:3
70,62:3
70,63:1
70,64:5
70,65:4
70,66:3
70,67:5
70,71:2
70,73:2
70,74:2
70,76:2
71,16:1
71,21:2
71,30:1
71,48:4
71,54:1
71,55:1
71,56:1
71,57:1
71,58:1
71,59:2
71,60:3
71,61:1
71,62:1
71,63:1
71,64:3
71,65:2
71,66:1
71,67:3
71,68:2
71,69:2
71,70:2
71,72:2
71,80:3
72,16:3
72,30:1
72,48:6
72,54:3
72,55:3
72,56:3
72,57:3
72,58:3
72,59:4
72,60:1
72,61:3
72,62:3
72,63:1
72,64:5
72,65:4
72,66:3
72,67:5
72,71:2
72,73:2
72,74:2
72,76:2
72,80:1
73,48:4
73,68:2
73,69:2
73,70:2
73,72:2
73,80:3
74,48:4
74,68:2
74,69:2
74,70:2
74,72:2
74,75:2
74,80:3
75,48:6
75,76:2
75,80:1
76,48:4
76,68:2
76,69:2
76,70:2
76,72:2
76,75:2
76,77:2
76,78:2
76,79:2
76,80:3
76,81:3
77,48:6
77,76:2
77,80:1
78,48:6
78,76:2
78,80:1
79,48:6
79,76:2
79,80:1
79,81:1
80,16:4
80,21:1
80,30:2
80,48:7
80,54:4
80,55:4
80,56:4
80,57:4
80,58:4
80,59:5
80,61:4
80,62:4
80,63:2
80,64:6
80,65:5
80,66:4
80,67:6
80,71:3
80,73:3
80,74:3
80,75:1
80,76:3
80,77:1
80,78:1
80,79:1
81,48:7
81,85:7
82,48:7
82,85:7
83,48:7
83,85:7
83,86:7
84,48:7
84,85:7
84,86:7
85,82:7
85,83:7
85,84:7

<setup times backward>
5,1:3
5,2:3
5,3:3
5,4:3
5,6:3
5,7:3
5,8:3
5,9:5
5,30:3
6,9:2
7,9:2
8,9:2
8,15:2
8,16:2
8,17:2
10,1:3
10,2:3
10,3:3
10,4:3
10,6:3
10,7:3
10,8:3
10,9:5
10,30:3
11,1:3
11,2:3
11,3:3
11,4:3
11,6:3
11,7:3
11,8:3
11,9:5
11,30:3
12,1:3
12,2:3
12,3:3
12,4:3
12,6:3
12,7:3
12,8:3
12,9:5
12,30:3
13,1:3
13,2:3
13,3:3
13,4:3
13,6:3
13,7:3
13,8:3
13,9:5
13,30:3
14,1:3
14,2:3
14,3:3
14,4:3
14,6:3
14,7:3
14,8:3
14,9:5
14,30:3
16,34:1
16,35:1
16,37:1
16,40:2
16,44:2
16,48:3
16,50:2
16,51:2
16,52:2
19,59:1
19,64:2
19,65:1
19,67:2
20,1:1
20,2:1
20,3:1
20,4:1
20,6:1
20,7:1
20,8:1
20,9:3
20,15:3
20,16:3
20,17:3
20,18:3
20,19:3
20,27:3
20,30:1
21,1:1
21,2:1
21,3:1
21,4:1
21,6:1
21,7:1
21,8:1
21,9:3
21,15:3
21,16:3
21,17:3
21,18:3
21,19:3
21,27:3
21,29:1
21,30:1
21,31:1
21,32:1
21,33:1
21,34:4
21,35:4
21,37:4
21,40:5
21,41:3
21,42:2
21,43:3
21,44:5
21,45:3
21,46:3
21,47:3
21,48:6
21,49:3
21,50:5
21,51:5
21,52:5
21,53:2
21,71:2
22,1:1
22,2:1
22,3:1
22,4:1
22,6:1
22,7:1
22,8:1
22,9:3
22,15:3
22,16:3
22,17:3
22,18:3
22,19:3
22,30:1
22,54:3
22,55:3
22,56:3
22,57:3
22,58:3
22,59:4
22,61:3
22,62:3
22,63:1
22,64:5
22,65:4
22,66:3
22,67:5
23,1:1
23,2:1
23,3:1
23,4:1
23,6:1
23,7:1
23,8:1
23,9:3
23,15:3
23,16:3
23,17:3
23,18:3
23,19:3
23,30:1
23,54:3
23,55:3
23,56:3
23,57:3
23,58:3
23,59:4
23,61:3
23,62:3
23,63:1
23,64:5
23,65:4
23,66:3
23,67:5
24,1:1
24,2:1
24,3:1
24,4:1
24,6:1
24,7:1
24,8:1
24,9:3
24,15:3
24,16:3
24,17:3
24,18:3
24,19:3
24,30:1
24,54:3
24,55:3
24,56:3
24,57:3
24,58:3
24,59:4
24,61:3
24,62:3
24,63:1
24,64:5
24,65:4
24,66:3
24,67:5
25,1:1
25,2:1
25,3:1
25,4:1
25,6:1
25,7:1
25,8:1
25,9:3
25,15:3
25,16:3
25,17:3
25,18:3
25,19:3
25,30:1
25,54:3
25,55:3
25,56:3
25,57:3
25,58:3
25,59:4
25,61:3
25,62:3
25,63:1
25,64:5
25,65:4
25,66:3
25,67:5
26,1:1
26,2:1
26,3:1
26,4:1
26,6:1
26,7:1
26,8:1
26,9:3
26,15:3
26,16:3
26,17:3
26,18:3
26,19:3
26,27:3
26,29:1
26,30:1
26,31:1
26,32:1
26,33:1
26,34:4
26,35:4
26,54:3
26,55:3
26,56:3
26,57:3
26,58:3
26,59:4
26,61:3
26,62:3
26,63:1
26,64:5
26,65:4
26,66:3
26,67:5
27,59:1
27,64:2
27,65:1
27,67:2
28,1:1
28,2:1
28,3:1
28,4:1
28,6:1
28,7:1
28,8:1
28,9:3
28,15:3
28,16:3
28,17:3
28,18:3
28,19:3
28,27:3
28,30:1
28,54:3
28,55:3
28,56:3
28,57:3
28,58:3
28,59:4
28,61:3
28,62:3
28,63:1
28,64:5
28,65:4
28,66:3
28,67:5
29,9:2
29,15:2
29,16:2
29,17:2
29,18:2
29,19:2
29,27:2
29,54:2
29,55:2
29,56:2
29,57:2
29,58:2
29,59:3
29,61:2
29,62:2
29,64:4
29,65:3
29,66:2
29,67:4
30,9:2
30,15:2
30,16:2
30,17:2
30,18:2
30,19:2
30,27:2
30,34:3
30,35:3
30,37:3
30,40:4
30,41:2
30,42:1
30,43:2
30,44:4
30,45:2
30,46:2
30,47:2
30,48:5
30,49:2
30,50:4
30,51:4
30,52:4
30,53:1
30,71:1
31,9:2
31,15:2
31,16:2
31,17:2
31,18:2
31,19:2
31,27:2
31,54:2
31,55:2
31,56:2
31,57:2
31,58:2
31,59:3
31,61:2
31,62:2
31,64:4
31,65:3
31,66:2
31,67:4
32,9:2
32,15:2
32,16:2
32,17:2
32,18:2
32,19:2
32,27:2
32,54:2
32,55:2
32,56:2
32,57:2
32,58:2
32,59:3
32,61:2
32,62:2
32,64:4
32,65:3
32,66:2
32,67:4
33,9:2
33,15:2
33,16:2
33,17:2
33,18:2
33,19:2
33,27:2
33,54:2
33,55:2
33,56:2
33,57:2
33,58:2
33,59:3
33,61:2
33,62:2
33,64:4
33,65:3
33,66:2
33,67:4
34,64:1
34,67:1
35,64:1
35,67:1
36,1:2
36,2:2
36,3:2
36,4:2
36,6:2
36,7:2
36,8:2
36,9:4
36,15:4
36,16:4
36,17:4
36,18:4
36,19:4
36,20:1
36,21:1
36,22:1
36,23:1
36,24:1
36,25:1
36,26:1
36,27:4
36,28:1
36,29:2
36,30:2
36,31:2
36,32:2
36,33:2
36,34:5
36,35:5
36,37:5
36,54:4
36,55:4
36,56:4
36,57:4
36,58:4
36,59:5
36,61:4
36,62:4
36,63:2
36,64:6
36,65:5
36,66:4
36,67:6
37,64:1
37,67:1
38,1:2
38,2:2
38,3:2
38,4:2
38,6:2
38,7:2
38,8:2
38,9:4
38,15:4
38,16:4
38,17:4
38,18:4
38,19:4
38,20:1
38,21:1
38,22:1
38,23:1
38,24:1
38,25:1
38,26:1
38,27:4
38,28:1
38,29:2
38,30:2
38,31:2
38,32:2
38,33:2
38,34:5
38,35:5
38,37:5
38,54:4
38,55:4
38,56:4
38,57:4
38,58:4
38,59:5
38,61:4
38,62:4
38,63:2
38,64:6
38,65:5
38,66:4
38,67:6
39,1:2
39,2:2
39,3:2
39,4:2
39,6:2
39,7:2
39,8:2
39,9:4
39,15:4
39,16:4
39,17:4
39,18:4
39,19:4
39,20:1
39,21:1
39,22:1
39,23:1
39,24:1
39,25:1
39,26:1
39,27:4
39,28:1
39,29:2
39,30:2
39,31:2
39,32:2
39,33:2
39,34:5
39,35:5
39,37:5
39,54:4
39,55:4
39,56:4
39,57:4
39,58:4
39,59:5
39,61:4
39,62:4
39,63:2
39,64:6
39,65:5
39,66:4
39,67:6
40,48:1
41,34:1
41,35:1
41,37:1
41,40:2
41,44:2
41,48:3
41,50:2
41,51:2
41,52:2
41,59:1
41,64:2
41,65:1
41,67:2
42,9:1
42,15:1
42,16:1
42,17:1
42,18:1
42,19:1
42,27:1
42,34:2
42,35:2
42,37:2
42,40:3
42,41:1
42,43:1
42,44:3
42,45:1
42,46:1
42,47:1
42,48:4
42,49:1
42,50:3
42,51:3
42,52:3
42,54:1
42,55:1
42,56:1
42,57:1
42,58:1
42,59:2
42,61:1
42,62:1
42,64:3
42,65:2
42,66:1
42,67:3
43,34:1
43,35:1
43,37:1
43,40:2
43,44:2
43,59:1
43,64:2
43,65:1
43,67:2
44,48:1
45,34:1
45,35:1
45,37:1
45,40:2
45,44:2
45,59:1
45,64:2
45,65:1
45,67:2
46,34:1
46,35:1
46,37:1
46,40:2
46,44:2
46,59:1
46,64:2
46,65:1
46,67:2
47,34:1
47,35:1
47,37:1
47,40:2
47,44:2
47,59:1
47,64:2
47,65:1
47,67:2
49,34:1
49,35:1
49,37:1
49,40:2
49,44:2
49,48:3
49,59:1
49,64:2
49,65:1
49,67:2
50,48:1
51,48:1
52,48:1
53,9:1
53,15:1
53,16:1
53,17:1
53,18:1
53,19:1
53,27:1
53,34:2
53,35:2
53,37:2
53,40:3
53,41:1
53,43:1
53,44:3
53,45:1
53,46:1
53,47:1
53,48:4
53,49:1
53,50:3
53,51:3
53,52:3
53,54:1
53,55:1
53,56:1
53,57:1
53,58:1
53,59:2
53,61:1
53,62:1
53,64:3
53,65:2
53,66:1
53,67:3
54,34:1
54,35:1
54,37:1
54,40:2
54,44:2
54,48:3
54,50:2
54,51:2
54,52:2
55,34:1
55,35:1
55,37:1
55,40:2
55,44:2
55,48:3
55,50:2
55,51:2
55,52:2
56,34:1
56,35:1
56,37:1
56,40:2
56,44:2
56,48:3
56,50:2
56,51:2
56,52:2
57,34:1
57,35:1
57,37:1
57,40:2
57,44:2
57,48:3
57,50:2
57,51:2
57,52:2
58,34:1
58,35:1
58,37:1
58,40:2
58,44:2
58,48:3
58,50:2
58,51:2
58,52:2
58,59:1
58,64:2
58,65:1
59,40:1
59,44:1
59,48:2
59,50:1
59,51:1
59,52:1
59,64:1
60,1:2
60,2:2
60,3:2
60,4:2
60,6:2
60,7:2
60,8:2
60,9:4
60,15:4
60,16:4
60,17:4
60,18:4
60,19:4
60,20:1
60,21:1
60,22:1
60,23:1
60,24:1
60,25:1
60,26:1
60,27:4
60,28:1
60,29:2
60,30:2
60,31:2
60,32:2
60,33:2
60,34:5
60,35:5
60,37:5
60,40:6
60,41:4
60,42:3
60,43:4
60,44:6
60,45:4
60,46:4
60,47:4
60,48:7
60,49:4
60,50:6
60,51:6
60,52:6
60,53:3
60,54:4
60,55:4
60,56:4
60,57:4
60,58:4
60,59:5
60,61:4
60,62:4
60,63:2
60,64:6
60,65:5
60,66:4
60,68:1
60,69:1
60,70:1
60,71:3
60,72:1
61,34:1
61,35:1
61,37:1
61,40:2
61,44:2
61,48:3
61,50:2
61,51:2
61,52:2
61,59:1
61,64:2
61,65:1
62,34:1
62,35:1
62,37:1
62,40:2
62,44:2
62,48:3
62,50:2
62,51:2
62,52:2
62,59:1
62,64:2
62,65:1
63,9:2
63,15:2
63,16:2
63,17:2
63,18:2
63,19:2
63,27:2
63,34:3
63,35:3
63,37:3
63,40:4
63,41:2
63,42:1
63,43:2
63,44:4
63,45:2
63,46:2
63,47:2
63,48:5
63,49:2
63,50:4
63,51:4
63,52:4
63,53:1
63,54:2
63,55:2
63,56:2
63,57:2
63,58:2
63,59:3
63,61:2
63,62:2
63,64:4
63,65:3
63,66:2
63,71:1
64,48:1
65,40:1
65,44:1
65,48:2
65,50:1
65,51:1
65,52:1
65,64:1
66,34:1
66,35:1
66,37:1
66,40:2
66,44:2
66,48:3
66,50:2
66,51:2
66,52:2
66,59:1
66,64:2
66,65:1
67,48:1
68,1:1
68,2:1
68,3:1
68,4:1
68,6:1
68,7:1
68,8:1
68,9:3
68,15:3
68,16:3
68,17:3
68,18:3
68,19:3
68,27:3
68,29:1
68,30:1
68,31:1
68,32:1
68,33:1
68,34:4
68,35:4
68,37:4
68,40:5
68,41:3
68,42:2
68,43:3
68,44:5
68,45:3
68,46:3
68,47:3
68,48:6
68,49:3
68,50:5
68,51:5
68,52:5
68,53:2
68,54:3
68,55:3
68,56:3
68,57:3
68,58:3
68,59:4
68,61:3
68,62:3
68,63:1
68,64:5
68,65:4
68,66:3
68,67:5
68,71:2
68,73:2
68,74:2
68,76:2
69,1:1
69,2:1
69,3:1
69,4:1
69,6:1
69,7:1
69,8:1
69,9:3
69,15:3
69,16:3
69,17:3
69,18:3
69,19:3
69,27:3
69,29:1
69,30:1
69,31:1
69,32:1
69,33:1
69,34:4
69,35:4
69,37:4
69,40:5
69,41:3
69,42:2
69,43:3
69,44:5
69,45:3
69,46:3
69,47:3
69,48:6
69,49:3
69,50:5
69,51:5
69,52:5
69,53:2
69,54:3
69,55:3
69,56:3
69,57:3
69,58:3
69,59:4
69,61:3
69,62:3
69,63:1
69,64:5
69,65:4
69,66:3
69,67:5
69,71:2
69,73:2
69,74:2
69,76:2
70,1:1
70,2:1
70,3:1
70,4:1
70,6:1
70,7:1
70,8:1
70,9:3
70,15:3
70,16:3
70,17:3
70,18:3
70,19:3
70,27:3
70,29:1
70,30:1
70,31:1
70,32:1
70,33:1
70,34:4
70,35:4
70,37:4
70,40:5
70,41:3
70,42:2
70,43:3
70,44:5
70,45:3
70,46:3
70,47:3
70,48:6
70,49:3
70,50:5
70,51:5
70,52:5
70,53:2
70,54:3
70,55:3
70,56:3
70,57:3
70,58:3
70,59:4
70,61:3
70,62:3
70,63:1
70,64:5
70,65:4
70,66:3
70,67:5
70,71:2
70,73:2
70,74:2
70,76:2
71,9:1
71,15:1
71,16:1
71,17:1
71,18:1
71,19:1
71,27:1
71,34:2
71,35:2
71,37:2
71,40:3
71,41:1
71,43:1
71,44:3
71,45:1
71,46:1
71,47:1
71,48:4
71,49:1
71,50:3
71,51:3
71,52:3
71,54:1
71,55:1
71,56:1
71,57:1
71,58:1
71,59:2
71,61:1
71,62:1
71,64:3
71,65:2
71,66:1
71,67:3
72,1:1
72,2:1
72,3:1
72,4:1
72,6:1
72,7:1
72,8:1
72,9:3
72,15:3
72,16:3
72,17:3
72,18:3
72,19:3
72,27:3
72,29:1
72,30:1
72,31:1
72,32:1
72,33:1
72,34:4
72,35:4
72,37:4
72,40:5
72,41:3
72,42:2
72,43:3
72,44:5
72,45:3
72,46:3
72,47:3
72,48:6
72,49:3
72,50:5
72,51:5
72,52:5
72,53:2
72,54:3
72,55:3
72,56:3
72,57:3
72,58:3
72,59:4
72,61:3
72,62:3
72,63:1
72,64:5
72,65:4
72,66:3
72,67:5
72,71:2
72,73:2
72,74:2
72,76:2
73,9:1
73,15:1
73,16:1
73,17:1
73,18:1
73,19:1
73,27:1
73,34:2
73,35:2
73,37:2
73,40:3
73,41:1
73,43:1
73,44:3
73,45:1
73,46:1
73,47:1
73,48:4
73,49:1
73,50:3
73,51:3
73,52:3
73,54:1
73,55:1
73,56:1
73,57:1
73,58:1
73,59:2
73,61:1
73,62:1
73,64:3
73,65:2
73,66:1
73,67:3
74,9:1
74,15:1
74,16:1
74,17:1
74,18:1
74,19:1
74,27:1
74,34:2
74,35:2
74,37:2
74,40:3
74,41:1
74,43:1
74,44:3
74,45:1
74,46:1
74,47:1
74,48:4
74,49:1
74,50:3
74,51:3
74,52:3
74,54:1
74,55:1
74,56:1
74,57:1
74,58:1
74,59:2
74,61:1
74,62:1
74,64:3
74,65:2
74,66:1
74,67:3
75,1:1
75,2:1
75,3:1
75,4:1
75,6:1
75,7:1
75,8:1
75,9:3
75,15:3
75,16:3
75,17:3
75,18:3
75,19:3
75,27:3
75,29:1
75,30:1
75,31:1
75,32:1
75,33:1
75,34:4
75,35:4
75,37:4
75,40:5
75,41:3
75,42:2
75,43:3
75,44:5
75,45:3
75,46:3
75,47:3
75,48:6
75,49:3
75,50:5
75,51:5
75,52:5
75,53:2
75,54:3
75,55:3
75,56:3
75,57:3
75,58:3
75,59:4
75,61:3
75,62:3
75,63:1
75,64:5
75,65:4
75,66:3
75,67:5
75,71:2
75,73:2
75,74:2
75,76:2
76,9:1
76,15:1
76,16:1
76,17:1
76,18:1
76,19:1
76,27:1
76,34:2
76,35:2
76,37:2
76,40:3
76,41:1
76,43:1
76,44:3
76,45:1
76,46:1
76,47:1
76,48:4
76,49:1
76,50:3
76,51:3
76,52:3
76,54:1
76,55:1
76,56:1
76,57:1
76,58:1
76,59:2
76,61:1
76,62:1
76,64:3
76,65:2
76,66:1
76,67:3
77,1:1
77,2:1
77,3:1
77,4:1
77,6:1
77,7:1
77,8:1
77,9:3
77,15:3
77,16:3
77,17:3
77,18:3
77,19:3
77,27:3
77,29:1
77,30:1
77,31:1
77,32:1
77,33:1
77,34:4
77,35:4
77,37:4
77,40:5
77,41:3
77,42:2
77,43:3
77,44:5
77,45:3
77,46:3
77,47:3
77,48:6
77,49:3
77,50:5
77,51:5
77,52:5
77,53:2
77,54:3
77,55:3
77,56:3
77,57:3
77,58:3
77,59:4
77,61:3
77,62:3
77,63:1
77,64:5
77,65:4
77,66:3
77,67:5
77,71:2
77,73:2
77,74:2
77,76:2
78,1:1
78,2:1
78,3:1
78,4:1
78,6:1
78,7:1
78,8:1
78,9:3
78,15:3
78,16:3
78,17:3
78,18:3
78,19:3
78,27:3
78,29:1
78,30:1
78,31:1
78,32:1
78,33:1
78,34:4
78,35:4
78,37:4
78,40:5
78,41:3
78,42:2
78,43:3
78,44:5
78,45:3
78,46:3
78,47:3
78,48:6
78,49:3
78,50:5
78,51:5
78,52:5
78,53:2
78,54:3
78,55:3
78,56:3
78,57:3
78,58:3
78,59:4
78,61:3
78,62:3
78,63:1
78,64:5
78,65:4
78,66:3
78,67:5
78,71:2
78,73:2
78,74:2
78,76:2
79,1:1
79,2:1
79,3:1
79,4:1
79,6:1
79,7:1
79,8:1
79,9:3
79,15:3
79,16:3
79,17:3
79,18:3
79,19:3
79,27:3
79,29:1
79,30:1
79,31:1
79,32:1
79,33:1
79,34:4
79,35:4
79,37:4
79,40:5
79,41:3
79,42:2
79,43:3
79,44:5
79,45:3
79,46:3
79,47:3
79,48:6
79,49:3
79,50:5
79,51:5
79,52:5
79,53:2
79,54:3
79,55:3
79,56:3
79,57:3
79,58:3
79,59:4
79,61:3
79,62:3
79,63:1
79,64:5
79,65:4
79,66:3
79,67:5
79,71:2
79,73:2
79,74:2
79,76:2
80,1:2
80,2:2
80,3:2
80,4:2
80,6:2
80,7:2
80,8:2
80,9:4
80,15:4
80,16:4
80,17:4
80,18:4
80,19:4
80,20:1
80,21:1
80,22:1
80,23:1
80,24:1
80,25:1
80,26:1
80,27:4
80,28:1
80,29:2
80,30:2
80,31:2
80,32:2
80,33:2
80,34:5
80,35:5
80,37:5
80,40:6
80,41:4
80,42:3
80,43:4
80,44:6
80,45:4
80,46:4
80,47:4
80,48:7
80,49:4
80,50:6
80,51:6
80,52:6
80,53:3
80,54:4
80,55:4
80,56:4
80,57:4
80,58:4
80,59:5
80,61:4
80,62:4
80,63:2
80,64:6
80,65:5
80,66:4
80,67:6
80,68:1
80,69:1
80,70:1
80,71:3
80,72:1
80,73:3
80,74:3
80,75:1
80,76:3
80,77:1
80,78:1
80,79:1
81,1:2
81,2:2
81,3:2
81,4:2
81,6:2
81,7:2
81,8:2
81,9:4
81,15:4
81,16:4
81,17:4
81,18:4
81,19:4
81,20:1
81,21:1
81,22:1
81,23:1
81,24:1
81,25:1
81,26:1
81,27:4
81,28:1
81,29:2
81,30:2
81,31:2
81,32:2
81,33:2
81,34:5
81,35:5
81,37:5
81,40:6
81,41:4
81,42:3
81,43:4
81,44:6
81,45:4
81,46:4
81,47:4
81,48:7
81,49:4
81,50:6
81,51:6
81,52:6
81,53:3
81,54:4
81,55:4
81,56:4
81,57:4
81,58:4
81,59:5
81,61:4
81,62:4
81,63:2
81,64:6
81,65:5
81,66:4
81,67:6
81,68:1
81,69:1
81,70:1
81,71:3
81,72:1
81,73:3
81,74:3
81,75:1
81,76:3
81,77:1
81,78:1
81,79:1
82,1:2
82,2:2
82,3:2
82,4:2
82,6:2
82,7:2
82,8:2
82,9:4
82,15:4
82,16:4
82,17:4
82,18:4
82,19:4
82,20:1
82,21:1
82,22:1
82,23:1
82,24:1
82,25:1
82,26:1
82,27:4
82,28:1
82,29:2
82,30:2
82,31:2
82,32:2
82,33:2
82,34:5
82,35:5
82,37:5
82,40:6
82,41:4
82,42:3
82,43:4
82,44:6
82,45:4
82,46:4
82,47:4
82,48:7
82,49:4
82,50:6
82,51:6
82,52:6
82,53:3
82,54:4
82,55:4
82,56:4
82,57:4
82,58:4
82,59:5
82,61:4
82,62:4
82,63:2
82,64:6
82,65:5
82,66:4
82,67:6
82,68:1
82,69:1
82,70:1
82,71:3
82,72:1
82,73:3
82,74:3
82,75:1
82,76:3
82,77:1
82,78:1
82,79:1
82,85:7
83,1:2
83,2:2
83,3:2
83,4:2
83,6:2
83,7:2
83,8:2
83,9:4
83,15:4
83,16:4
83,17:4
83,18:4
83,19:4
83,20:1
83,21:1
83,22:1
83,23:1
83,24:1
83,25:1
83,26:1
83,27:4
83,28:1
83,29:2
83,30:2
83,31:2
83,32:2
83,33:2
83,34:5
83,35:5
83,37:5
83,40:6
83,41:4
83,42:3
83,43:4
83,44:6
83,45:4
83,46:4
83,47:4
83,48:7
83,49:4
83,50:6
83,51:6
83,52:6
83,53:3
83,54:4
83,55:4
83,56:4
83,57:4
83,58:4
83,59:5
83,61:4
83,62:4
83,63:2
83,64:6
83,65:5
83,66:4
83,67:6
83,68:1
83,69:1
83,70:1
83,71:3
83,72:1
83,73:3
83,74:3
83,75:1
83,76:3
83,77:1
83,78:1
83,79:1
83,85:7
84,1:2
84,2:2
84,3:2
84,4:2
84,6:2
84,7:2
84,8:2
84,9:4
84,15:4
84,16:4
84,17:4
84,18:4
84,19:4
84,20:1
84,21:1
84,22:1
84,23:1
84,24:1
84,25:1
84,26:1
84,27:4
84,28:1
84,29:2
84,30:2
84,31:2
84,32:2
84,33:2
84,34:5
84,35:5
84,37:5
84,40:6
84,41:4
84,42:3
84,43:4
84,44:6
84,45:4
84,46:4
84,47:4
84,48:7
84,49:4
84,50:6
84,51:6
84,52:6
84,53:3
84,54:4
84,55:4
84,56:4
84,57:4
84,58:4
84,59:5
84,61:4
84,62:4
84,63:2
84,64:6
84,65:5
84,66:4
84,67:6
84,68:1
84,69:1
84,70:1
84,71:3
84,72:1
84,73:3
84,74:3
84,75:1
84,76:3
84,77:1
84,78:1
84,79:1
84,85:7

<end>

<optimal SALBP-1 value>
15


<rand seed>
467321153

<Lower Bounds>
Lm1=15
Lms1=15
Lm2=3
Lm3=5
Lm4=15
Best=15

<Optimal Stations (Iterations: 10)>
18
